proyfinal/src/viki/013/experimentInOfficeAgust.take6.output/4db36781-856b-4997-bb06-423239cb6da7.als.dat
{'cnf.clauses': '118081',
 'cnf.totvars': '69608',
 'conflict literals': '26',
 'conflicts': '16',
 'decisions': '3875',
 'memused.mb': '15.85',
 'outcome': 'UNSAT',
 'propagations': '26801',
 'restarts': '1',
 'solver.msecs': 37,
 'task.msecs': 86}
