proyfinal/src/viki/013/experimentInOfficeAgust.take6.output/4db36781-856b-4997-bb06-423239cb6da7.als.out
Reading from standard input... Use '--help' for help.
============================[ Problem Statistics ]=============================
|                                                                             |
|  Number of variables:         69608                                         |
|  Number of clauses:          118081                                         |
|  Parse time:                   0.03 s                                       |
|                                                                             |
============================[ Search Statistics ]==============================
| Conflicts |          ORIGINAL         |          LEARNT          | Progress |
|           |    Vars  Clauses Literals |    Limit  Clauses Lit/Cl |          |
===============================================================================
===============================================================================
restarts              : 1
conflicts             : 16             (428 /sec)
decisions             : 3875           (0.00 % random) (103709 /sec)
propagations          : 26801          (717295 /sec)
conflict literals     : 26             (0.00 % deleted)
Memory used           : 15.85 MB
CPU time              : 0.037364 s

UNSATISFIABLE
